(declare-const state-left (Array Int CompositionState-Left)
)

(declare-const state-right (Array Int CompositionState-Right)
)

(declare-const state-length-left-old Int)
(declare-const state-length-left-new Int)
(declare-const state-length-right-old Int)
(declare-const state-length-right-new Int)
(declare-const arg-GETAOUT-h Int)
(declare-const arg-SETBIT-h Int)
(declare-const arg-SETBIT-zz Bool)
(declare-const arg-GBLG-h Int)
(declare-const arg-GBLG-l Int)
(declare-const arg-GBLG-r Int)
(declare-const arg-GBLG-op (Array (Tuple2 Bool Bool)
 (Maybe Bool)
)
)
(declare-const arg-GBLG-j Int)
(declare-const arg-GETKEYSIN-h Int)
(declare-const return-left-keys_top-GETAOUT Return_Left_keys_top_GETAOUT)
(assert (= return-left-keys_top-GETAOUT (oracle-Left-keys_top-GETAOUT state-left state-length-left-old arg-GETAOUT-h)
)
)
(declare-const return-left-keys_top-SETBIT Return_Left_keys_top_SETBIT)
(assert (= return-left-keys_top-SETBIT (oracle-Left-keys_top-SETBIT state-left state-length-left-old arg-SETBIT-h arg-SETBIT-zz)
)
)
(declare-const return-left-gate-GBLG Return_Left_gate_GBLG)
(assert (= return-left-gate-GBLG (oracle-Left-gate-GBLG state-left state-length-left-old arg-GBLG-h arg-GBLG-l arg-GBLG-r arg-GBLG-op arg-GBLG-j)
)
)
(declare-const return-left-keys_bottom-GETKEYSIN Return_Left_keys_bottom_GETKEYSIN)
(assert (= return-left-keys_bottom-GETKEYSIN (oracle-Left-keys_bottom-GETKEYSIN state-left state-length-left-old arg-GETKEYSIN-h)
)
)
(declare-const return-right-keys_top-GETAOUT Return_Right_keys_top_GETAOUT)
(assert (= return-right-keys_top-GETAOUT (oracle-Right-keys_top-GETAOUT state-right state-length-right-old arg-GETAOUT-h)
)
)
(declare-const return-right-keys_top-SETBIT Return_Right_keys_top_SETBIT)
(assert (= return-right-keys_top-SETBIT (oracle-Right-keys_top-SETBIT state-right state-length-right-old arg-SETBIT-h arg-SETBIT-zz)
)
)
(declare-const return-right-simgate-GBLG Return_Right_simgate_GBLG)
(assert (= return-right-simgate-GBLG (oracle-Right-simgate-GBLG state-right state-length-right-old arg-GBLG-h arg-GBLG-l arg-GBLG-r arg-GBLG-op arg-GBLG-j)
)
)
(declare-const return-right-keys_bottom-GETKEYSIN Return_Right_keys_bottom_GETKEYSIN)
(assert (= return-right-keys_bottom-GETKEYSIN (oracle-Right-keys_bottom-GETKEYSIN state-right state-length-right-old arg-GETKEYSIN-h)
)
)
